Cost: 1588
0-22-40-0
0-26-1-9-33-27-2-28-3-24-4-29-30-5-6-8-11-10-47-25-0
0-41-19-20-37-38-18-17-12-32-7-23-34-13-46-36-14-15-16-45-39-21-0
Cost: 1588
0-22-40-0
0-26-1-9-33-27-2-28-3-24-4-29-30-5-6-8-11-10-47-25-0
0-41-19-20-37-38-18-17-12-32-7-23-34-13-46-36-14-15-16-45-39-21-0
Cost: 1588
0-22-40-0
0-26-1-9-33-27-2-28-3-24-4-29-30-5-6-8-11-10-47-25-0
0-41-19-20-37-38-18-17-12-32-7-23-34-13-46-36-14-15-16-45-39-21-0
Cost: 1588
0-22-40-0
0-26-1-9-33-27-2-28-3-24-4-29-30-5-6-8-11-10-47-25-0
0-41-19-20-37-38-18-17-12-32-7-23-34-13-46-36-14-15-16-45-39-21-0
Cost: 1588
0-22-40-0
0-26-1-9-33-27-2-28-3-24-4-29-30-5-6-8-11-10-47-25-0
0-41-19-20-37-38-18-17-12-32-7-23-34-13-46-36-14-15-16-45-39-21-0
Cost: 1588
0-22-40-0
0-26-1-9-33-27-2-28-3-24-4-29-30-5-6-8-11-10-47-25-0
0-41-19-20-37-38-18-17-12-32-7-23-34-13-46-36-14-15-16-45-39-21-0
Cost: 1588
0-22-40-0
0-26-1-9-33-27-2-28-3-24-4-29-30-5-6-8-11-10-47-25-0
0-41-19-20-37-38-18-17-12-32-7-23-34-13-46-36-14-15-16-45-39-21-0
Cost: 1588
0-22-40-0
0-26-1-9-33-27-2-28-3-24-4-29-30-5-6-8-11-10-47-25-0
0-41-19-20-37-38-18-17-12-32-7-23-34-13-46-36-14-15-16-45-39-21-0
Cost: 1588
0-22-40-0
0-26-1-9-33-27-2-28-3-24-4-29-30-5-6-8-11-10-47-25-0
0-41-19-20-37-38-18-17-12-32-7-23-34-13-46-36-14-15-16-45-39-21-0
Cost: 1588
0-22-40-0
0-26-1-9-33-27-2-28-3-24-4-29-30-5-6-8-11-10-47-25-0
0-41-19-20-37-38-18-17-12-32-7-23-34-13-46-36-14-15-16-45-39-21-0
Cost: 1588
0-22-40-0
0-26-1-9-33-27-2-28-3-24-4-29-30-5-6-8-11-10-47-25-0
0-41-19-20-37-38-18-17-12-32-7-23-34-13-46-36-14-15-16-45-39-21-0
Cost: 1588
0-41-19-20-37-38-18-17-12-32-7-23-34-13-46-36-14-15-16-45-39-21-0
0-26-1-9-33-27-2-28-3-24-4-29-30-5-6-8-11-10-47-25-0
0-22-40-0
Cost: 1588
0-41-19-20-37-38-18-17-12-32-7-23-34-13-46-36-14-15-16-45-39-21-0
0-26-1-9-33-27-2-28-3-24-4-29-30-5-6-8-11-10-47-25-0
0-22-40-0
Cost: 1588
0-41-19-20-37-38-18-17-12-32-7-23-34-13-46-36-14-15-16-45-39-21-0
0-26-1-9-33-27-2-28-3-24-4-29-30-5-6-8-11-10-47-25-0
0-22-40-0
Cost: 1588
0-22-40-0
0-41-19-20-37-38-18-17-12-32-7-23-34-13-46-36-14-15-16-45-39-21-0
0-26-1-9-33-27-2-28-3-24-4-29-30-5-6-8-11-10-47-25-0
Cost: 1588
0-41-19-20-37-38-18-17-12-32-7-23-34-13-46-36-14-15-16-45-39-21-0
0-26-1-9-33-27-2-28-3-24-4-29-30-5-6-8-11-10-47-25-0
0-22-40-0
Cost: 1588
0-41-19-20-37-38-18-17-12-32-7-23-34-13-46-36-14-15-16-45-39-21-0
0-26-1-9-33-27-2-28-3-24-4-29-30-5-6-8-11-10-47-25-0
0-22-40-0
Cost: 1588
0-22-40-0
0-41-19-20-37-38-18-17-12-32-7-23-34-13-46-36-14-15-16-45-39-21-0
0-26-1-9-33-27-2-28-3-24-4-29-30-5-6-8-11-10-47-25-0
Cost: 1588
0-41-19-20-37-38-18-17-12-32-7-23-34-13-46-36-14-15-16-45-39-21-0
0-26-1-9-33-27-2-28-3-24-4-29-30-5-6-8-11-10-47-25-0
0-22-40-0
Cost: 1588
0-41-19-20-37-38-18-17-12-32-7-23-34-13-46-36-14-15-16-45-39-21-0
0-26-1-9-33-27-2-28-3-24-4-29-30-5-6-8-11-10-47-25-0
0-22-40-0
Cost: 1588
0-26-1-9-33-27-2-28-3-24-4-29-30-5-6-8-11-10-47-25-0
0-22-40-0
0-41-19-20-37-38-18-17-12-32-7-23-34-13-46-36-14-15-16-45-39-21-0
Cost: 1588
0-22-40-0
0-41-19-20-37-38-18-17-12-32-7-23-34-13-46-36-14-15-16-45-39-21-0
0-26-1-9-33-27-2-28-3-24-4-29-30-5-6-8-11-10-47-25-0
Cost: 1588
0-22-40-0
0-41-19-20-37-38-18-17-12-32-7-23-34-13-46-36-14-15-16-45-39-21-0
0-26-1-9-33-27-2-28-3-24-4-29-30-5-6-8-11-10-47-25-0
Cost: 1588
0-26-1-9-33-27-2-28-3-24-4-29-30-5-6-8-11-10-47-25-0
0-41-19-20-37-38-18-17-12-32-7-23-34-13-46-36-14-15-16-45-39-21-0
0-22-40-0
Cost: 1588
0-26-1-9-33-27-2-28-3-24-4-29-30-5-6-8-11-10-47-25-0
0-41-19-20-37-38-18-17-12-32-7-23-34-13-46-36-14-15-16-45-39-21-0
0-22-40-0
Cost: 1588
0-26-1-9-33-27-2-28-3-24-4-29-30-5-6-8-11-10-47-25-0
0-41-19-20-37-38-18-17-12-32-7-23-34-13-46-36-14-15-16-45-39-21-0
0-22-40-0
Cost: 1588
0-26-1-9-33-27-2-28-3-24-4-29-30-5-6-8-11-10-47-25-0
0-41-19-20-37-38-18-17-12-32-7-23-34-13-46-36-14-15-16-45-39-21-0
0-22-40-0
Cost: 1588
0-26-1-9-33-27-2-28-3-24-4-29-30-5-6-8-11-10-47-25-0
0-22-40-0
0-41-19-20-37-38-18-17-12-32-7-23-34-13-46-36-14-15-16-45-39-21-0
Cost: 1588
0-22-40-0
0-41-19-20-37-38-18-17-12-32-7-23-34-13-46-36-14-15-16-45-39-21-0
0-26-1-9-33-27-2-28-3-24-4-29-30-5-6-8-11-10-47-25-0
Cost: 1588
0-22-40-0
0-41-19-20-37-38-18-17-12-32-7-23-34-13-46-36-14-15-16-45-39-21-0
0-26-1-9-33-27-2-28-3-24-4-29-30-5-6-8-11-10-47-25-0
Cost: 1588
0-26-1-9-33-27-2-28-3-24-4-29-30-5-6-8-11-10-47-25-0
0-41-19-20-37-38-18-17-12-32-7-23-34-13-46-36-14-15-16-45-39-21-0
0-22-40-0
Cost: 1588
0-26-1-9-33-27-2-28-3-24-4-29-30-5-6-8-11-10-47-25-0
0-41-19-20-38-37-18-17-12-32-7-23-34-13-46-36-14-15-16-45-39-21-0
0-22-40-0
Cost: 1594
0-41-43-20-38-18-17-12-32-7-23-34-13-46-36-14-15-16-45-19-39-21-0
0-26-1-9-33-27-2-28-3-24-4-29-30-5-6-8-11-10-47-25-0
0-22-40-0
Cost: 1588
0-26-1-9-33-27-2-28-3-24-4-29-30-5-6-8-11-10-47-25-0
0-41-19-20-38-37-18-17-12-32-7-23-34-13-46-36-14-15-16-45-39-21-0
0-22-40-0
Cost: 1588
0-41-19-20-38-37-18-17-12-32-7-23-34-13-46-36-14-15-16-45-39-21-0
0-22-40-0
0-26-1-9-33-27-2-28-3-24-4-29-30-5-6-8-11-10-47-25-0
